(set-info :smt-lib-version 2.6)
(set-logic ALL)
(declare-sort Nat$ 0)
(declare-fun to_int$ (Nat$) Int)
(declare-fun nat_step$ (Nat$) Nat$)
(set-info :source |Generator: Rodin SMT Plug-in|)
(set-info :license "https://creativecommons.org/licenses/by-nc/4.0/")
(set-info :category "industrial")
(set-info :status unsat)
(declare-fun parity (Int Int) Bool)
(declare-fun x () Int)
(declare-fun y () Nat$)
(assert (! (and (forall ((x0 Nat$) (x1 Int)) (=> (parity (to_int$ x0) x1) (and (<= 0 (to_int$ x0)) (or (= x1 0) (= x1 1))))) (forall ((x2 Int) (x3 Int) (x4 Int)) (=> (and (parity x2 x3) (parity x2 x4)) (= x3 x4))) (forall ((x5 Nat$)) (=> (<= 0 (to_int$ x5)) (exists ((x6 Int)) (parity (to_int$ x5) x6))))) :named hyp1))
(assert (! (exists ((x7 Int) (x8 Int)) (and (= x7 0) (= x8 0) (parity x7 x8))) :named hyp2))
(assert (! (forall ((x9 Nat$)) (=> (<= 0 (to_int$ x9)) (exists ((x10 Int) (x11 Int)) (and (= x10 (+ (to_int$ x9) 1)) (forall ((x12 Int)) (=> (parity (to_int$ x9) x12) (= x11 (- 1 x12)))) (parity x10 x11))))) :named hyp3))
(assert (! (<= 0 (to_int$ y)) :named hyp4))
(assert (! (and (<= (to_int$ y) x) (<= x (+ (to_int$ y) 1))) :named hyp5))
(assert (! (exists ((x13 Int)) (and (parity (to_int$ (to_int$ y)) x13) (parity x x13))) :named hyp6))
(assert (! (not (= x (to_int$ y))) :named goal))
(assert (= (to_int$ (nat_step$ y)) (to_int$ y)))
(check-sat)
(exit)
